
Gurobi 8.1.1 (win64) logging started 11/26/19 01:53:01

Changed value of parameter LogFile to logs/full/rlt/full-06-30-2.log
   Prev: gurobi.log  Default: 
Changed value of parameter LogToConsole to 0
   Prev: 1  Min: 0  Max: 1  Default: 1
Changed value of parameter TimeLimit to 3600.0
   Prev: 1e+100  Min: 0.0  Max: 1e+100  Default: 1e+100
Optimize a model with 446369 rows, 149331 columns and 1048613 nonzeros
Variable types: 0 continuous, 149331 integer (546 binary)
Coefficient statistics:
  Matrix range     [1e+00, 1e+00]
  Objective range  [1e+00, 1e+00]
  Bounds range     [1e+00, 1e+00]
  RHS range        [1e+00, 2e+00]
Presolve removed 0 rows and 0 columns (presolve time = 5s) ...
Presolve time: 8.21s
Presolved: 446369 rows, 149331 columns, 1048613 nonzeros
Variable types: 0 continuous, 149331 integer (149331 binary)
Found heuristic solution: objective 11.0000000
Found heuristic solution: objective 8.0000000

Root simplex log...

Iteration    Objective       Primal Inf.    Dual Inf.      Time
       0    0.0000000e+00   1.500000e+01   0.000000e+00     11s
    7390    1.3333423e+00   2.233333e+01   0.000000e+00     16s
    7960    1.6000084e+00   2.360000e+01   0.000000e+00     20s
    8530    1.7777818e+00   2.222222e+01   0.000000e+00     27s
    8830    1.8823600e+00   1.882353e+01   0.000000e+00     31s
    9520    1.9999985e+00   6.040000e+02   0.000000e+00     36s
    9910    2.0000025e+00   4.225000e+01   0.000000e+00     41s
   10240    2.0000044e+00   3.925000e+01   0.000000e+00     45s
   10540    2.0000055e+00   3.180000e+01   0.000000e+00     50s
   10820    2.0000064e+00   3.711111e+01   0.000000e+00     55s
   11110    2.0000072e+00   2.440000e+01   0.000000e+00     60s
   11530    2.0000087e+00   2.152632e+01   0.000000e+00     67s
   11790    2.0000096e+00   1.685714e+01   0.000000e+00     72s
   12060    2.0000104e+00   3.200000e+01   0.000000e+00     76s
   12320    2.0000114e+00   5.910000e+02   0.000000e+00     80s
   12740    2.0000145e+00   2.266667e+01   0.000000e+00     87s
   13000    2.0000170e+00   2.300000e+01   0.000000e+00     91s
   13280    2.0000180e+00   2.200000e+01   0.000000e+00     96s
   13700    2.0220814e+00   1.937941e+02   0.000000e+00    102s
   14000    2.0312551e+00   2.681250e+01   0.000000e+00    106s
   14280    2.0312560e+00   2.543750e+01   0.000000e+00    110s
   14700    2.0312572e+00   2.131250e+01   0.000000e+00    117s
   15010    2.0322680e+00   1.716129e+01   0.000000e+00    121s
   15420    2.0357240e+00   1.486905e+01   0.000000e+00    127s
   15680    2.0714329e+00   2.471429e+01   0.000000e+00    131s
   16050    2.0714339e+00   1.221429e+01   0.000000e+00    137s
   16310    2.0714344e+00   1.528571e+01   0.000000e+00    141s
   16660    2.0714351e+00   1.352041e+01   0.000000e+00    146s
   16910    2.0714353e+00   1.325569e+01   0.000000e+00    150s
   17270    2.0714356e+00   1.340000e+01   0.000000e+00    156s
   17510    2.0714359e+00   1.157429e+03   0.000000e+00    160s
   17840    2.0714361e+00   1.624762e+01   0.000000e+00    166s
   18180    2.0714364e+00   1.535714e+01   0.000000e+00    171s
   18520    2.0714368e+00   6.656098e+00   0.000000e+00    177s
   18790    2.0714370e+00   9.442857e+00   0.000000e+00    181s
   19130    2.0714374e+00   1.326255e+01   0.000000e+00    186s
   19500    2.0714376e+00   2.841837e+00   0.000000e+00    192s
   19790    2.0714377e+00   4.410539e+00   0.000000e+00    196s
   20200    2.0714377e+00   5.882877e+00   0.000000e+00    202s
   20470    2.0714377e+00   1.938776e-01   0.000000e+00    205s
   20545    2.0714286e+00   0.000000e+00   0.000000e+00    207s

Root relaxation: objective 2.071429e+00, 20545 iterations, 196.42 seconds
Total elapsed time = 218.87s

    Nodes    |    Current Node    |     Objective Bounds      |     Work
 Expl Unexpl |  Obj  Depth IntInf | Incumbent    BestBd   Gap | It/Node Time

     0     0    2.07143    0 3346    8.00000    2.07143  74.1%     -  358s
H    0     0                       6.0000000    2.07143  65.5%     -  364s
     0     0    2.07176    0 5847    6.00000    2.07176  65.5%     -  471s
     0     0    2.33398    0 6650    6.00000    2.33398  61.1%     -  950s
     0     0    2.33399    0 6639    6.00000    2.33399  61.1%     - 1205s
     0     0    2.39054    0 6602    6.00000    2.39054  60.2%     - 1274s
     0     0    2.39055    0 6585    6.00000    2.39055  60.2%     - 1970s
     0     0    2.39055    0 6566    6.00000    2.39055  60.2%     - 1989s
     0     0    2.39055    0 6564    6.00000    2.39055  60.2%     - 2217s
     0     0    2.39055    0 6564    6.00000    2.39055  60.2%     - 3600s

Cutting planes:
  Gomory: 2
  Zero half: 4

Explored 1 nodes (105268 simplex iterations) in 3600.48 seconds
Thread count was 4 (of 4 available processors)

Solution count 3: 6 8 11 

Time limit reached
Best objective 6.000000000000e+00, best bound 3.000000000000e+00, gap 50.0000%
